<number of tasks>
29

<cycle time>
41

<task times>
1 7
2 19
3 15
4 5
5 12
6 10
7 8
8 16
9 2
10 6
11 21
12 10
13 9
14 4
15 14
16 7
17 14
18 17
19 10
20 16
21 1
22 9
23 25
24 14
25 14
26 2
27 10
28 7
29 20

<precedence relations>
1,3
1,25
2,6
2,26
3,4
4,5
5,8
5,13
6,8
7,9
7,12
7,25
8,11
8,16
9,10
10,14
10,15
11,17
12,15
13,17
14,16
15,19
16,18
17,20
18,22
19,21
20,23
21,22
22,23
23,24
23,28
24,29
25,29
26,27
27,29
28,29

<setup times forward>
1,2:4
1,3:2
1,6:3
1,9:2
1,10:2
1,12:1
1,14:3
1,15:6
1,19:1
1,21:3
1,25:2
1,26:4
1,27:6
2,1:4
2,3:6
2,4:2
2,5:3
2,6:7
2,7:4
2,9:2
2,10:6
2,12:5
2,13:3
2,14:1
2,15:10
2,19:3
2,21:1
2,25:6
2,26:8
3,2:6
3,4:4
3,6:1
3,7:2
3,9:4
3,12:1
3,14:5
3,15:4
3,19:3
3,21:5
3,26:2
3,27:4
4,2:2
4,5:1
4,6:5
4,7:2
4,10:4
4,12:3
4,14:1
4,15:8
4,19:1
4,21:1
4,25:4
4,26:6
4,27:8
5,2:3
5,6:4
5,7:1
5,8:5
5,9:1
5,10:3
5,12:2
5,14:2
5,15:7
5,21:2
5,25:3
5,26:5
5,27:7
6,1:3
6,3:1
6,4:5
6,5:4
6,7:3
6,8:1
6,9:5
6,10:1
6,12:2
6,13:4
6,14:6
6,15:3
6,19:4
6,21:6
6,25:1
6,26:1
6,27:3
7,2:4
7,3:2
7,4:2
7,5:1
7,6:3
7,8:4
7,9:2
7,11:5
7,12:1
7,13:1
7,17:4
7,20:3
7,25:2
7,26:4
7,27:6
8,7:4
8,9:6
8,10:2
8,11:1
8,12:3
8,13:5
8,14:7
8,15:2
8,16:1
8,19:5
8,21:7
8,25:2
8,27:2
9,1:2
9,2:2
9,3:4
9,5:1
9,6:5
9,8:6
9,10:4
9,11:7
9,12:3
9,13:1
9,17:2
9,20:1
9,25:4
9,26:6
9,27:8
10,1:2
10,2:6
10,4:4
10,5:3
10,6:1
10,8:2
10,11:3
10,12:1
10,13:3
10,14:5
10,15:4
10,17:6
10,20:5
10,26:2
10,27:4
11,7:5
11,9:7
11,10:3
11,12:4
11,13:6
11,14:8
11,15:1
11,17:9
11,18:4
11,19:6
11,21:8
11,22:1
11,25:3
11,26:1
11,27:1
12,1:1
12,2:5
12,3:1
12,4:3
12,5:2
12,6:2
12,8:3
12,9:3
12,10:1
12,11:4
12,13:2
12,14:4
12,15:5
12,16:4
12,17:5
12,20:4
12,25:1
12,26:3
12,27:5
13,2:3
13,6:4
13,7:1
13,8:5
13,9:1
13,10:3
13,11:6
13,12:2
13,14:2
13,15:7
13,16:6
13,17:3
13,18:2
13,21:2
13,22:5
13,25:3
13,26:5
13,27:7
14,1:3
14,2:1
14,3:5
14,4:1
14,5:2
14,6:6
14,8:7
14,11:8
14,12:4
14,13:2
14,15:9
14,16:8
14,17:1
14,19:2
14,25:5
14,26:7
14,27:9
15,1:6
15,2:10
15,3:4
15,4:8
15,5:7
15,6:3
15,8:2
15,11:1
15,13:7
15,14:9
15,16:1
15,17:10
15,18:5
15,19:7
15,20:9
15,25:4
15,26:2
16,12:4
16,13:6
16,15:1
16,17:9
16,18:4
16,19:6
16,20:8
16,21:8
16,25:3
16,26:1
16,27:1
17,7:4
17,9:2
17,10:6
17,12:5
17,14:1
17,15:10
17,16:9
17,18:5
17,19:3
17,20:1
17,21:1
17,22:8
17,25:6
17,26:8
17,27:10
18,11:4
18,13:2
18,15:5
18,17:5
18,19:2
18,20:4
18,21:4
18,22:3
18,25:1
18,26:3
18,27:5
19,1:1
19,2:3
19,3:3
19,4:1
19,6:4
19,8:5
19,11:6
19,14:2
19,16:6
19,17:3
19,18:2
19,20:2
19,21:2
19,25:3
19,26:5
19,27:7
20,7:3
20,9:1
20,10:5
20,12:4
20,15:9
20,16:8
20,18:4
20,19:2
20,22:7
20,25:5
20,26:7
20,27:9
21,1:3
21,2:1
21,3:5
21,4:1
21,5:2
21,6:6
21,8:7
21,11:8
21,13:2
21,16:8
21,17:1
21,18:4
21,22:7
21,25:5
21,26:7
21,27:9
22,11:1
22,13:5
22,17:8
22,20:7
22,23:7
22,25:2
22,27:2
23,24:4
23,25:5
23,26:7
23,27:9
23,28:2
24,25:1
24,26:3
24,27:5
24,28:2
24,29:4
25,2:6
25,4:4
25,5:3
25,6:1
25,8:2
25,9:4
25,11:3
25,12:1
25,13:3
25,14:5
25,15:4
25,16:3
25,17:6
25,18:1
25,19:3
25,20:5
25,21:5
25,22:2
25,23:5
25,24:1
25,26:2
25,27:4
25,28:3
25,29:3
26,1:4
26,3:2
26,4:6
26,5:5
26,6:1
26,7:4
26,9:6
26,10:2
26,11:1
26,12:3
26,13:5
26,14:7
26,15:2
26,16:1
26,17:8
26,18:3
26,19:5
26,20:7
26,21:7
26,23:7
26,24:3
26,25:2
26,27:2
26,28:5
27,1:6
27,3:4
27,4:8
27,5:7
27,6:3
27,7:6
27,8:2
27,9:8
27,10:4
27,11:1
27,12:5
27,13:7
27,14:9
27,16:1
27,17:10
27,18:5
27,19:7
27,20:9
27,21:9
27,22:2
27,23:9
27,24:5
27,25:4
27,28:7
27,29:1
28,24:2
28,25:3
28,26:5
28,27:7
28,29:6

<setup times backward>
1,1:11
1,2:7
1,6:14
1,7:11
1,9:9
1,10:13
1,12:12
1,14:8
1,15:17
1,19:10
1,21:8
1,26:15
1,27:17
2,1:15
2,2:11
2,3:17
2,4:13
2,5:14
2,7:15
2,9:13
2,10:17
2,12:16
2,13:14
2,14:12
2,15:21
2,19:14
2,21:12
2,25:17
3,1:9
3,2:5
3,3:11
3,6:12
3,7:9
3,9:7
3,10:11
3,12:10
3,14:6
3,15:15
3,19:8
3,21:6
3,25:11
3,26:13
3,27:15
4,1:13
4,2:9
4,3:15
4,4:11
4,6:16
4,7:13
4,9:11
4,10:15
4,12:14
4,14:10
4,15:19
4,19:12
4,21:10
4,25:15
4,26:17
4,27:19
5,1:12
5,2:8
5,3:14
5,4:10
5,5:11
5,6:15
5,7:12
5,9:10
5,10:14
5,12:13
5,14:9
5,15:18
5,19:11
5,21:9
5,25:14
5,26:16
5,27:18
6,1:8
6,2:4
6,3:10
6,4:6
6,5:7
6,6:11
6,7:8
6,9:6
6,10:10
6,12:9
6,13:7
6,14:5
6,15:14
6,19:7
6,21:5
6,25:10
6,26:12
6,27:14
7,1:11
7,2:7
7,3:13
7,4:9
7,5:10
7,6:14
7,7:11
7,8:15
7,11:16
7,13:10
7,17:7
7,20:8
7,26:15
7,27:17
8,1:7
8,2:3
8,3:9
8,4:5
8,5:6
8,6:10
8,7:7
8,8:11
8,9:5
8,10:9
8,12:8
8,13:6
8,14:4
8,15:13
8,19:6
8,21:4
8,25:9
8,26:11
8,27:13
9,1:13
9,2:9
9,3:15
9,4:11
9,5:12
9,6:16
9,7:13
9,8:17
9,9:11
9,11:18
9,12:14
9,13:12
9,17:9
9,20:10
9,25:15
9,26:17
9,27:19
10,1:9
10,2:5
10,3:11
10,4:7
10,5:8
10,6:12
10,7:9
10,8:13
10,9:7
10,10:11
10,11:14
10,12:10
10,13:8
10,17:5
10,20:6
10,25:11
10,26:13
10,27:15
11,1:6
11,2:2
11,3:8
11,4:4
11,5:5
11,6:9
11,7:6
11,8:10
11,9:4
11,10:8
11,11:11
11,12:7
11,13:5
11,14:3
11,15:12
11,16:11
11,18:7
11,19:5
11,21:3
11,22:10
11,25:8
11,26:10
11,27:12
12,1:10
12,2:6
12,3:12
12,4:8
12,5:9
12,6:13
12,7:10
12,8:14
12,9:8
12,10:12
12,11:15
12,12:11
12,13:9
12,14:7
12,16:15
12,17:6
12,18:11
12,20:7
12,25:12
12,26:14
12,27:16
13,1:12
13,2:8
13,3:14
13,4:10
13,5:11
13,6:15
13,7:12
13,8:16
13,9:10
13,10:14
13,11:17
13,12:13
13,13:11
13,14:9
13,15:18
13,16:17
13,18:13
13,19:11
13,21:9
13,22:16
13,25:14
13,26:16
13,27:18
14,1:14
14,2:10
14,3:16
14,4:12
14,5:13
14,6:17
14,7:14
14,8:18
14,9:12
14,10:16
14,11:19
14,12:15
14,13:13
14,14:11
14,15:20
14,17:10
14,19:13
14,20:11
14,21:11
14,25:16
14,26:18
14,27:20
15,1:5
15,2:1
15,3:7
15,4:3
15,5:4
15,6:8
15,7:5
15,8:9
15,9:3
15,10:7
15,11:10
15,12:6
15,13:4
15,14:2
15,15:11
15,16:10
15,17:1
15,18:6
15,20:2
15,25:7
15,26:9
15,27:11
16,1:6
16,2:2
16,3:8
16,4:4
16,5:5
16,6:9
16,7:6
16,8:10
16,9:4
16,10:8
16,11:11
16,12:7
16,13:5
16,14:3
16,15:12
16,16:11
16,17:2
16,19:5
16,20:3
16,21:3
16,25:8
16,26:10
16,27:12
17,1:15
17,2:11
17,3:17
17,4:13
17,5:14
17,6:18
17,7:15
17,8:19
17,9:13
17,10:17
17,11:20
17,12:16
17,13:14
17,14:12
17,15:21
17,16:20
17,17:11
17,18:16
17,19:14
17,21:12
17,22:19
17,25:17
17,26:19
17,27:21
18,1:10
18,2:6
18,3:12
18,4:8
18,5:9
18,6:13
18,7:10
18,8:14
18,9:8
18,10:12
18,11:15
18,12:11
18,13:9
18,14:7
18,15:16
18,16:15
18,17:6
18,18:11
18,19:9
18,20:7
18,21:7
18,25:12
18,26:14
18,27:16
19,1:12
19,2:8
19,3:14
19,4:10
19,5:11
19,6:15
19,7:12
19,8:16
19,9:10
19,10:14
19,11:17
19,12:13
19,13:11
19,14:9
19,15:18
19,16:17
19,17:8
19,18:13
19,19:11
19,20:9
19,25:14
19,26:16
19,27:18
20,1:14
20,2:10
20,3:16
20,4:12
20,5:13
20,6:17
20,7:14
20,8:18
20,9:12
20,10:16
20,11:19
20,12:15
20,13:13
20,14:11
20,15:20
20,16:19
20,17:10
20,18:15
20,19:13
20,20:11
20,21:11
20,22:18
20,25:16
20,26:18
20,27:20
21,1:14
21,2:10
21,3:16
21,4:12
21,5:13
21,6:17
21,7:14
21,8:18
21,9:12
21,10:16
21,11:19
21,12:15
21,13:13
21,14:11
21,15:20
21,16:19
21,17:10
21,18:15
21,19:13
21,20:11
21,21:11
21,25:16
21,26:18
21,27:20
22,1:7
22,2:3
22,3:9
22,4:5
22,5:6
22,6:10
22,7:7
22,8:11
22,9:5
22,10:9
22,11:12
22,12:8
22,13:6
22,14:4
22,15:13
22,16:12
22,17:3
22,18:8
22,19:6
22,20:4
22,21:4
22,22:11
22,25:9
22,26:11
22,27:13
23,1:14
23,2:10
23,3:16
23,4:12
23,5:13
23,6:17
23,7:14
23,8:18
23,9:12
23,10:16
23,11:19
23,12:15
23,13:13
23,14:11
23,15:20
23,16:19
23,17:10
23,18:15
23,19:13
23,20:11
23,21:11
23,22:18
23,23:11
23,25:16
23,26:18
23,27:20
24,1:10
24,2:6
24,3:12
24,4:8
24,5:9
24,6:13
24,7:10
24,8:14
24,9:8
24,10:12
24,11:15
24,12:11
24,13:9
24,14:7
24,15:16
24,16:15
24,17:6
24,18:11
24,19:9
24,20:7
24,21:7
24,22:14
24,23:7
24,24:11
24,25:12
24,26:14
24,27:16
24,28:9
25,1:9
25,2:5
25,3:11
25,4:7
25,5:8
25,6:12
25,7:9
25,8:13
25,9:7
25,10:11
25,11:14
25,12:10
25,13:8
25,14:6
25,15:15
25,16:14
25,17:5
25,18:10
25,19:8
25,20:6
25,21:6
25,22:13
25,23:6
25,24:10
25,25:11
25,26:13
25,27:15
25,28:8
26,1:7
26,2:3
26,3:9
26,4:5
26,5:6
26,6:10
26,7:7
26,8:11
26,9:5
26,10:9
26,11:12
26,12:8
26,13:6
26,14:4
26,15:13
26,16:12
26,17:3
26,18:8
26,19:6
26,20:4
26,21:4
26,22:11
26,23:4
26,24:8
26,25:9
26,26:11
26,28:6
27,1:5
27,2:1
27,3:7
27,4:3
27,5:4
27,6:8
27,7:5
27,8:9
27,9:3
27,10:7
27,11:10
27,12:6
27,13:4
27,14:2
27,15:11
27,16:10
27,17:1
27,18:6
27,19:4
27,20:2
27,21:2
27,22:9
27,23:2
27,24:6
27,25:7
27,26:9
27,27:11
27,28:4
28,1:12
28,2:8
28,3:14
28,4:10
28,5:11
28,6:15
28,7:12
28,8:16
28,9:10
28,10:14
28,11:17
28,12:13
28,13:11
28,14:9
28,15:18
28,16:17
28,17:8
28,18:13
28,19:11
28,20:9
28,21:9
28,22:16
28,23:9
28,24:13
28,25:14
28,26:16
28,27:18
28,28:11
29,1:6
29,2:2
29,3:8
29,4:4
29,5:5
29,6:9
29,7:6
29,8:10
29,9:4
29,10:8
29,11:11
29,12:7
29,13:5
29,14:3
29,15:12
29,16:11
29,17:2
29,18:7
29,19:5
29,20:3
29,21:3
29,22:10
29,23:3
29,24:7
29,25:8
29,26:10
29,27:12
29,28:5
29,29:11

<end>

<optimal SALBP-1 value>
8


<rand seed>
467321153

